(set-logic QF_S)
(declare-fun var0 () String)
(declare-fun var1 () String)
(declare-fun var2 () String)
(declare-fun var3 () Int)
(declare-fun var4 () Int)
(declare-fun var5 () String)
(declare-fun var6 () Int)
(assert (>= (str.indexof (str.replace var0 "w>6" var1) (str.substr var2 var3 var4) (str.len var5)) (str.indexof "x" var0 136)))
(assert (str.contains var1 var2))
(assert (< (str.to.int var2) (str.len (str.at var0 var6))))
(assert (str.contains var2 var5))
(check-sat)